% demand
num_movements = 21;
loading_factor = [900, 1650, 1600, 1850, 2000, 1000, 1200, 1650, 1050, 1600, 1900, 1000, 1100, 1950, 900, 1050, 1250, 1050, 800, 1550, 2000];
pickup_time = [0, 0, 0, 1, 2, 2, 2, 3, 4, 5, 5, 5, 5, 7, 7, 7, 9, 11, 11, 12, 13];
delivery_time = [5, 2, 3, 2, 3, 5, 6, 5, 5, 6, 6, 6, 6, 12, 11, 8, 10, 13, 14, 14, 14];

% transporter definition
total_capacity = 7000;
num_decks = 3;
capacity = [3000, 1000, 3000];

% ways out of decks
num_ways_out = 1;
paths_out = array3d(decks, ways_out, decks, [
% ways out of deck d1
2, 3, 0, 

% ways out of deck d2
3, 0, 0, 

% ways out of deck d3
0, 0, 0,	

]);

